data/lp_files/q3/83_2.lp
\ Model foo
\ LP format - for model browsing. Use MPS format to capture full model detail.
Minimize
  z
Subject To
 allocateEach[1]: x[1,1] + x[2,1] + x[3,1] + x[4,1] + x[5,1] = 1
 allocateEach[2]: x[1,2] + x[2,2] + x[3,2] + x[4,2] + x[5,2] = 1
 allocateEach[3]: x[1,3] + x[2,3] + x[3,3] + x[4,3] + x[5,3] = 1
 allocateAllCash: cashProportion[1] + cashProportion[2] + cashProportion[3]
   + cashProportion[4] + cashProportion[5] = 1
 findWorstP[1,2]: z + 0.075723156141148 cashProportion[1]
   - 0.075723156141148 cashProportion[2] + 0.3821495279923267 x[1,1]
   + 0.1163612499368974 x[1,2] + 0.4257660659296279 x[1,3]
   - 0.3821495279923267 x[2,1] - 0.1163612499368974 x[2,2]
   - 0.4257660659296279 x[2,3] >= 0
 findWorstP[1,3]: z + 0.075723156141148 cashProportion[1]
   - 0.075723156141148 cashProportion[3] + 0.3821495279923267 x[1,1]
   + 0.1163612499368974 x[1,2] + 0.4257660659296279 x[1,3]
   - 0.3821495279923267 x[3,1] - 0.1163612499368974 x[3,2]
   - 0.4257660659296279 x[3,3] >= 0
 findWorstP[1,4]: z + 0.075723156141148 cashProportion[1]
   - 0.075723156141148 cashProportion[4] + 0.3821495279923267 x[1,1]
   + 0.1163612499368974 x[1,2] + 0.4257660659296279 x[1,3]
   - 0.3821495279923267 x[4,1] - 0.1163612499368974 x[4,2]
   - 0.4257660659296279 x[4,3] >= 0
 findWorstP[1,5]: z + 0.075723156141148 cashProportion[1]
   - 0.075723156141148 cashProportion[5] + 0.3821495279923267 x[1,1]
   + 0.1163612499368974 x[1,2] + 0.4257660659296279 x[1,3]
   - 0.3821495279923267 x[5,1] - 0.1163612499368974 x[5,2]
   - 0.4257660659296279 x[5,3] >= 0
 findWorstP[2,1]: z - 0.1071122536418167 cashProportion[1]
   + 0.1071122536418167 cashProportion[2] - 0.1288917452156527 x[1,1]
   - 0.2604255926878035 x[1,2] - 0.5035704084547273 x[1,3]
   + 0.1288917452156527 x[2,1] + 0.2604255926878035 x[2,2]
   + 0.5035704084547273 x[2,3] >= 0
 findWorstP[2,3]: z + 0.1071122536418167 cashProportion[2]
   - 0.1071122536418167 cashProportion[3] + 0.1288917452156527 x[2,1]
   + 0.2604255926878035 x[2,2] + 0.5035704084547273 x[2,3]
   - 0.1288917452156527 x[3,1] - 0.2604255926878035 x[3,2]
   - 0.5035704084547273 x[3,3] >= 0
 findWorstP[2,4]: z + 0.1071122536418167 cashProportion[2]
   - 0.1071122536418167 cashProportion[4] + 0.1288917452156527 x[2,1]
   + 0.2604255926878035 x[2,2] + 0.5035704084547273 x[2,3]
   - 0.1288917452156527 x[4,1] - 0.2604255926878035 x[4,2]
   - 0.5035704084547273 x[4,3] >= 0
 findWorstP[2,5]: z + 0.1071122536418167 cashProportion[2]
   - 0.1071122536418167 cashProportion[5] + 0.1288917452156527 x[2,1]
   + 0.2604255926878035 x[2,2] + 0.5035704084547273 x[2,3]
   - 0.1288917452156527 x[5,1] - 0.2604255926878035 x[5,2]
   - 0.5035704084547273 x[5,3] >= 0
 findWorstP[3,1]: z - 0.0629987400251995 cashProportion[1]
   + 0.0629987400251995 cashProportion[3] - 0.2970180596388073 x[1,1]
   - 0.2311213775724486 x[1,2] - 0.4088618227635448 x[1,3]
   + 0.2970180596388073 x[3,1] + 0.2311213775724486 x[3,2]
   + 0.4088618227635448 x[3,3] >= 0
 findWorstP[3,2]: z - 0.0629987400251995 cashProportion[2]
   + 0.0629987400251995 cashProportion[3] - 0.2970180596388073 x[2,1]
   - 0.2311213775724486 x[2,2] - 0.4088618227635448 x[2,3]
   + 0.2970180596388073 x[3,1] + 0.2311213775724486 x[3,2]
   + 0.4088618227635448 x[3,3] >= 0
 findWorstP[3,4]: z + 0.0629987400251995 cashProportion[3]
   - 0.0629987400251995 cashProportion[4] + 0.2970180596388073 x[3,1]
   + 0.2311213775724486 x[3,2] + 0.4088618227635448 x[3,3]
   - 0.2970180596388073 x[4,1] - 0.2311213775724486 x[4,2]
   - 0.4088618227635448 x[4,3] >= 0
 findWorstP[3,5]: z + 0.0629987400251995 cashProportion[3]
   - 0.0629987400251995 cashProportion[5] + 0.2970180596388073 x[3,1]
   + 0.2311213775724486 x[3,2] + 0.4088618227635448 x[3,3]
   - 0.2970180596388073 x[5,1] - 0.2311213775724486 x[5,2]
   - 0.4088618227635448 x[5,3] >= 0
 findWorstP[4,1]: z - 0.1647627416520211 cashProportion[1]
   + 0.1647627416520211 cashProportion[4] - 0.4729789103690685 x[1,1]
   - 0.195079086115993 x[1,2] - 0.1671792618629174 x[1,3]
   + 0.4729789103690685 x[4,1] + 0.195079086115993 x[4,2]
   + 0.1671792618629174 x[4,3] >= 0
 findWorstP[4,2]: z - 0.1647627416520211 cashProportion[2]
   + 0.1647627416520211 cashProportion[4] - 0.4729789103690685 x[2,1]
   - 0.195079086115993 x[2,2] - 0.1671792618629174 x[2,3]
   + 0.4729789103690685 x[4,1] + 0.195079086115993 x[4,2]
   + 0.1671792618629174 x[4,3] >= 0
 findWorstP[4,3]: z - 0.1647627416520211 cashProportion[3]
   + 0.1647627416520211 cashProportion[4] - 0.4729789103690685 x[3,1]
   - 0.195079086115993 x[3,2] - 0.1671792618629174 x[3,3]
   + 0.4729789103690685 x[4,1] + 0.195079086115993 x[4,2]
   + 0.1671792618629174 x[4,3] >= 0
 findWorstP[4,5]: z + 0.1647627416520211 cashProportion[4]
   - 0.1647627416520211 cashProportion[5] + 0.4729789103690685 x[4,1]
   + 0.195079086115993 x[4,2] + 0.1671792618629174 x[4,3]
   - 0.4729789103690685 x[5,1] - 0.195079086115993 x[5,2]
   - 0.1671792618629174 x[5,3] >= 0
 findWorstP[5,1]: z - 0.066749733001068 cashProportion[1]
   + 0.066749733001068 cashProportion[5] - 0.23624955500178 x[1,1]
   - 0.3803399786400855 x[1,2] - 0.3166607333570666 x[1,3]
   + 0.23624955500178 x[5,1] + 0.3803399786400855 x[5,2]
   + 0.3166607333570666 x[5,3] >= 0
 findWorstP[5,2]: z - 0.066749733001068 cashProportion[2]
   + 0.066749733001068 cashProportion[5] - 0.23624955500178 x[2,1]
   - 0.3803399786400855 x[2,2] - 0.3166607333570666 x[2,3]
   + 0.23624955500178 x[5,1] + 0.3803399786400855 x[5,2]
   + 0.3166607333570666 x[5,3] >= 0
 findWorstP[5,3]: z - 0.066749733001068 cashProportion[3]
   + 0.066749733001068 cashProportion[5] - 0.23624955500178 x[3,1]
   - 0.3803399786400855 x[3,2] - 0.3166607333570666 x[3,3]
   + 0.23624955500178 x[5,1] + 0.3803399786400855 x[5,2]
   + 0.3166607333570666 x[5,3] >= 0
 findWorstP[5,4]: z - 0.066749733001068 cashProportion[4]
   + 0.066749733001068 cashProportion[5] - 0.23624955500178 x[4,1]
   - 0.3803399786400855 x[4,2] - 0.3166607333570666 x[4,3]
   + 0.23624955500178 x[5,1] + 0.3803399786400855 x[5,2]
   + 0.3166607333570666 x[5,3] >= 0
Bounds
 z <= 1
 -infinity <= cashProportion[1] <= 1
 -infinity <= cashProportion[2] <= 1
 -infinity <= cashProportion[3] <= 1
 -infinity <= cashProportion[4] <= 1
 -infinity <= cashProportion[5] <= 1
Binaries
 x[1,1] x[1,2] x[1,3] x[2,1] x[2,2] x[2,3] x[3,1] x[3,2] x[3,3] x[4,1]
 x[4,2] x[4,3] x[5,1] x[5,2] x[5,3]
End
