data/mps_files/pEFS/83_2.mps
NAME foo
ROWS
 N  OBJ
 E  allocateEach[1]
 E  allocateEach[2]
 E  allocateEach[3]
 E  allocateAllCash
 G  findWorstP[1,2]
 G  findWorstP[1,3]
 G  findWorstP[1,4]
 G  findWorstP[1,5]
 G  findWorstP[2,1]
 G  findWorstP[2,3]
 G  findWorstP[2,4]
 G  findWorstP[2,5]
 G  findWorstP[3,1]
 G  findWorstP[3,2]
 G  findWorstP[3,4]
 G  findWorstP[3,5]
 G  findWorstP[4,1]
 G  findWorstP[4,2]
 G  findWorstP[4,3]
 G  findWorstP[4,5]
 G  findWorstP[5,1]
 G  findWorstP[5,2]
 G  findWorstP[5,3]
 G  findWorstP[5,4]
COLUMNS
    z         OBJ       1
    z         findWorstP[1,2]  1
    z         findWorstP[1,3]  1
    z         findWorstP[1,4]  1
    z         findWorstP[1,5]  1
    z         findWorstP[2,1]  1
    z         findWorstP[2,3]  1
    z         findWorstP[2,4]  1
    z         findWorstP[2,5]  1
    z         findWorstP[3,1]  1
    z         findWorstP[3,2]  1
    z         findWorstP[3,4]  1
    z         findWorstP[3,5]  1
    z         findWorstP[4,1]  1
    z         findWorstP[4,2]  1
    z         findWorstP[4,3]  1
    z         findWorstP[4,5]  1
    z         findWorstP[5,1]  1
    z         findWorstP[5,2]  1
    z         findWorstP[5,3]  1
    z         findWorstP[5,4]  1
    cashProportion[1]  allocateAllCash  1
    cashProportion[1]  findWorstP[1,2]  7.5723156141147968e-02
    cashProportion[1]  findWorstP[1,3]  7.5723156141147968e-02
    cashProportion[1]  findWorstP[1,4]  7.5723156141147968e-02
    cashProportion[1]  findWorstP[1,5]  7.5723156141147968e-02
    cashProportion[1]  findWorstP[2,1]  -1.0711225364181666e-01
    cashProportion[1]  findWorstP[3,1]  -0.0629987400251995
    cashProportion[1]  findWorstP[4,1]  -1.6476274165202109e-01
    cashProportion[1]  findWorstP[5,1]  -6.6749733001068012e-02
    cashProportion[2]  allocateAllCash  1
    cashProportion[2]  findWorstP[1,2]  -7.5723156141147968e-02
    cashProportion[2]  findWorstP[2,1]  1.0711225364181666e-01
    cashProportion[2]  findWorstP[2,3]  1.0711225364181666e-01
    cashProportion[2]  findWorstP[2,4]  1.0711225364181666e-01
    cashProportion[2]  findWorstP[2,5]  1.0711225364181666e-01
    cashProportion[2]  findWorstP[3,2]  -0.0629987400251995
    cashProportion[2]  findWorstP[4,2]  -1.6476274165202109e-01
    cashProportion[2]  findWorstP[5,2]  -6.6749733001068012e-02
    cashProportion[3]  allocateAllCash  1
    cashProportion[3]  findWorstP[1,3]  -7.5723156141147968e-02
    cashProportion[3]  findWorstP[2,3]  -1.0711225364181666e-01
    cashProportion[3]  findWorstP[3,1]  0.0629987400251995
    cashProportion[3]  findWorstP[3,2]  0.0629987400251995
    cashProportion[3]  findWorstP[3,4]  0.0629987400251995
    cashProportion[3]  findWorstP[3,5]  0.0629987400251995
    cashProportion[3]  findWorstP[4,3]  -1.6476274165202109e-01
    cashProportion[3]  findWorstP[5,3]  -6.6749733001068012e-02
    cashProportion[4]  allocateAllCash  1
    cashProportion[4]  findWorstP[1,4]  -7.5723156141147968e-02
    cashProportion[4]  findWorstP[2,4]  -1.0711225364181666e-01
    cashProportion[4]  findWorstP[3,4]  -0.0629987400251995
    cashProportion[4]  findWorstP[4,1]  1.6476274165202109e-01
    cashProportion[4]  findWorstP[4,2]  1.6476274165202109e-01
    cashProportion[4]  findWorstP[4,3]  1.6476274165202109e-01
    cashProportion[4]  findWorstP[4,5]  1.6476274165202109e-01
    cashProportion[4]  findWorstP[5,4]  -6.6749733001068012e-02
    cashProportion[5]  allocateAllCash  1
    cashProportion[5]  findWorstP[1,5]  -7.5723156141147968e-02
    cashProportion[5]  findWorstP[2,5]  -1.0711225364181666e-01
    cashProportion[5]  findWorstP[3,5]  -0.0629987400251995
    cashProportion[5]  findWorstP[4,5]  -1.6476274165202109e-01
    cashProportion[5]  findWorstP[5,1]  6.6749733001068012e-02
    cashProportion[5]  findWorstP[5,2]  6.6749733001068012e-02
    cashProportion[5]  findWorstP[5,3]  6.6749733001068012e-02
    cashProportion[5]  findWorstP[5,4]  6.6749733001068012e-02
    MARKER    'MARKER'                 'INTORG'
    x[1,1]    allocateEach[1]  1
    x[1,1]    findWorstP[1,2]  3.8214952799232665e-01
    x[1,1]    findWorstP[1,3]  3.8214952799232665e-01
    x[1,1]    findWorstP[1,4]  3.8214952799232665e-01
    x[1,1]    findWorstP[1,5]  3.8214952799232665e-01
    x[1,1]    findWorstP[2,1]  -1.2889174521565269e-01
    x[1,1]    findWorstP[3,1]  -2.9701805963880729e-01
    x[1,1]    findWorstP[4,1]  -4.7297891036906853e-01
    x[1,1]    findWorstP[5,1]  -2.3624955500178002e-01
    x[1,2]    allocateEach[2]  1
    x[1,2]    findWorstP[1,2]  1.1636124993689735e-01
    x[1,2]    findWorstP[1,3]  1.1636124993689735e-01
    x[1,2]    findWorstP[1,4]  1.1636124993689735e-01
    x[1,2]    findWorstP[1,5]  1.1636124993689735e-01
    x[1,2]    findWorstP[2,1]  -2.6042559268780352e-01
    x[1,2]    findWorstP[3,1]  -2.3112137757244858e-01
    x[1,2]    findWorstP[4,1]  -1.9507908611599298e-01
    x[1,2]    findWorstP[5,1]  -3.8033997864008545e-01
    x[1,3]    allocateEach[3]  1
    x[1,3]    findWorstP[1,2]  4.2576606592962790e-01
    x[1,3]    findWorstP[1,3]  4.2576606592962790e-01
    x[1,3]    findWorstP[1,4]  4.2576606592962790e-01
    x[1,3]    findWorstP[1,5]  4.2576606592962790e-01
    x[1,3]    findWorstP[2,1]  -5.0357040845472734e-01
    x[1,3]    findWorstP[3,1]  -4.0886182276354477e-01
    x[1,3]    findWorstP[4,1]  -1.6717926186291740e-01
    x[1,3]    findWorstP[5,1]  -3.1666073335706657e-01
    x[2,1]    allocateEach[1]  1
    x[2,1]    findWorstP[1,2]  -3.8214952799232665e-01
    x[2,1]    findWorstP[2,1]  1.2889174521565269e-01
    x[2,1]    findWorstP[2,3]  1.2889174521565269e-01
    x[2,1]    findWorstP[2,4]  1.2889174521565269e-01
    x[2,1]    findWorstP[2,5]  1.2889174521565269e-01
    x[2,1]    findWorstP[3,2]  -2.9701805963880729e-01
    x[2,1]    findWorstP[4,2]  -4.7297891036906853e-01
    x[2,1]    findWorstP[5,2]  -2.3624955500178002e-01
    x[2,2]    allocateEach[2]  1
    x[2,2]    findWorstP[1,2]  -1.1636124993689735e-01
    x[2,2]    findWorstP[2,1]  2.6042559268780352e-01
    x[2,2]    findWorstP[2,3]  2.6042559268780352e-01
    x[2,2]    findWorstP[2,4]  2.6042559268780352e-01
    x[2,2]    findWorstP[2,5]  2.6042559268780352e-01
    x[2,2]    findWorstP[3,2]  -2.3112137757244858e-01
    x[2,2]    findWorstP[4,2]  -1.9507908611599298e-01
    x[2,2]    findWorstP[5,2]  -3.8033997864008545e-01
    x[2,3]    allocateEach[3]  1
    x[2,3]    findWorstP[1,2]  -4.2576606592962790e-01
    x[2,3]    findWorstP[2,1]  5.0357040845472734e-01
    x[2,3]    findWorstP[2,3]  5.0357040845472734e-01
    x[2,3]    findWorstP[2,4]  5.0357040845472734e-01
    x[2,3]    findWorstP[2,5]  5.0357040845472734e-01
    x[2,3]    findWorstP[3,2]  -4.0886182276354477e-01
    x[2,3]    findWorstP[4,2]  -1.6717926186291740e-01
    x[2,3]    findWorstP[5,2]  -3.1666073335706657e-01
    x[3,1]    allocateEach[1]  1
    x[3,1]    findWorstP[1,3]  -3.8214952799232665e-01
    x[3,1]    findWorstP[2,3]  -1.2889174521565269e-01
    x[3,1]    findWorstP[3,1]  2.9701805963880729e-01
    x[3,1]    findWorstP[3,2]  2.9701805963880729e-01
    x[3,1]    findWorstP[3,4]  2.9701805963880729e-01
    x[3,1]    findWorstP[3,5]  2.9701805963880729e-01
    x[3,1]    findWorstP[4,3]  -4.7297891036906853e-01
    x[3,1]    findWorstP[5,3]  -2.3624955500178002e-01
    x[3,2]    allocateEach[2]  1
    x[3,2]    findWorstP[1,3]  -1.1636124993689735e-01
    x[3,2]    findWorstP[2,3]  -2.6042559268780352e-01
    x[3,2]    findWorstP[3,1]  2.3112137757244858e-01
    x[3,2]    findWorstP[3,2]  2.3112137757244858e-01
    x[3,2]    findWorstP[3,4]  2.3112137757244858e-01
    x[3,2]    findWorstP[3,5]  2.3112137757244858e-01
    x[3,2]    findWorstP[4,3]  -1.9507908611599298e-01
    x[3,2]    findWorstP[5,3]  -3.8033997864008545e-01
    x[3,3]    allocateEach[3]  1
    x[3,3]    findWorstP[1,3]  -4.2576606592962790e-01
    x[3,3]    findWorstP[2,3]  -5.0357040845472734e-01
    x[3,3]    findWorstP[3,1]  4.0886182276354477e-01
    x[3,3]    findWorstP[3,2]  4.0886182276354477e-01
    x[3,3]    findWorstP[3,4]  4.0886182276354477e-01
    x[3,3]    findWorstP[3,5]  4.0886182276354477e-01
    x[3,3]    findWorstP[4,3]  -1.6717926186291740e-01
    x[3,3]    findWorstP[5,3]  -3.1666073335706657e-01
    x[4,1]    allocateEach[1]  1
    x[4,1]    findWorstP[1,4]  -3.8214952799232665e-01
    x[4,1]    findWorstP[2,4]  -1.2889174521565269e-01
    x[4,1]    findWorstP[3,4]  -2.9701805963880729e-01
    x[4,1]    findWorstP[4,1]  4.7297891036906853e-01
    x[4,1]    findWorstP[4,2]  4.7297891036906853e-01
    x[4,1]    findWorstP[4,3]  4.7297891036906853e-01
    x[4,1]    findWorstP[4,5]  4.7297891036906853e-01
    x[4,1]    findWorstP[5,4]  -2.3624955500178002e-01
    x[4,2]    allocateEach[2]  1
    x[4,2]    findWorstP[1,4]  -1.1636124993689735e-01
    x[4,2]    findWorstP[2,4]  -2.6042559268780352e-01
    x[4,2]    findWorstP[3,4]  -2.3112137757244858e-01
    x[4,2]    findWorstP[4,1]  1.9507908611599298e-01
    x[4,2]    findWorstP[4,2]  1.9507908611599298e-01
    x[4,2]    findWorstP[4,3]  1.9507908611599298e-01
    x[4,2]    findWorstP[4,5]  1.9507908611599298e-01
    x[4,2]    findWorstP[5,4]  -3.8033997864008545e-01
    x[4,3]    allocateEach[3]  1
    x[4,3]    findWorstP[1,4]  -4.2576606592962790e-01
    x[4,3]    findWorstP[2,4]  -5.0357040845472734e-01
    x[4,3]    findWorstP[3,4]  -4.0886182276354477e-01
    x[4,3]    findWorstP[4,1]  1.6717926186291740e-01
    x[4,3]    findWorstP[4,2]  1.6717926186291740e-01
    x[4,3]    findWorstP[4,3]  1.6717926186291740e-01
    x[4,3]    findWorstP[4,5]  1.6717926186291740e-01
    x[4,3]    findWorstP[5,4]  -3.1666073335706657e-01
    x[5,1]    allocateEach[1]  1
    x[5,1]    findWorstP[1,5]  -3.8214952799232665e-01
    x[5,1]    findWorstP[2,5]  -1.2889174521565269e-01
    x[5,1]    findWorstP[3,5]  -2.9701805963880729e-01
    x[5,1]    findWorstP[4,5]  -4.7297891036906853e-01
    x[5,1]    findWorstP[5,1]  2.3624955500178002e-01
    x[5,1]    findWorstP[5,2]  2.3624955500178002e-01
    x[5,1]    findWorstP[5,3]  2.3624955500178002e-01
    x[5,1]    findWorstP[5,4]  2.3624955500178002e-01
    x[5,2]    allocateEach[2]  1
    x[5,2]    findWorstP[1,5]  -1.1636124993689735e-01
    x[5,2]    findWorstP[2,5]  -2.6042559268780352e-01
    x[5,2]    findWorstP[3,5]  -2.3112137757244858e-01
    x[5,2]    findWorstP[4,5]  -1.9507908611599298e-01
    x[5,2]    findWorstP[5,1]  3.8033997864008545e-01
    x[5,2]    findWorstP[5,2]  3.8033997864008545e-01
    x[5,2]    findWorstP[5,3]  3.8033997864008545e-01
    x[5,2]    findWorstP[5,4]  3.8033997864008545e-01
    x[5,3]    allocateEach[3]  1
    x[5,3]    findWorstP[1,5]  -4.2576606592962790e-01
    x[5,3]    findWorstP[2,5]  -5.0357040845472734e-01
    x[5,3]    findWorstP[3,5]  -4.0886182276354477e-01
    x[5,3]    findWorstP[4,5]  -1.6717926186291740e-01
    x[5,3]    findWorstP[5,1]  3.1666073335706657e-01
    x[5,3]    findWorstP[5,2]  3.1666073335706657e-01
    x[5,3]    findWorstP[5,3]  3.1666073335706657e-01
    x[5,3]    findWorstP[5,4]  3.1666073335706657e-01
    MARKER    'MARKER'                 'INTEND'
RHS
    RHS1      allocateEach[1]  1
    RHS1      allocateEach[2]  1
    RHS1      allocateEach[3]  1
    RHS1      allocateAllCash  1
BOUNDS
 UP BND1      z         1
 MI BND1      cashProportion[1]
 UP BND1      cashProportion[1]  1
 MI BND1      cashProportion[2]
 UP BND1      cashProportion[2]  1
 MI BND1      cashProportion[3]
 UP BND1      cashProportion[3]  1
 MI BND1      cashProportion[4]
 UP BND1      cashProportion[4]  1
 MI BND1      cashProportion[5]
 UP BND1      cashProportion[5]  1
 BV BND1      x[1,1]  
 BV BND1      x[1,2]  
 BV BND1      x[1,3]  
 BV BND1      x[2,1]  
 BV BND1      x[2,2]  
 BV BND1      x[2,3]  
 BV BND1      x[3,1]  
 BV BND1      x[3,2]  
 BV BND1      x[3,3]  
 BV BND1      x[4,1]  
 BV BND1      x[4,2]  
 BV BND1      x[4,3]  
 BV BND1      x[5,1]  
 BV BND1      x[5,2]  
 BV BND1      x[5,3]  
ENDATA
